Welcome to sphere packing routines, relation testing division.
Welcome to Section A14.1.  
Enter cell count limit:  Enter slop:  		Slop = 0
Starting time:  	Thu Jun 25 16:57:27 1998

Case 1:
rhs = 0.184159265358979252
2.509999999999999787	2.828427124746190291
2.509999999999999787	2.828427124746190291
2.000000000000000000	2.510000000000000231
2.000000000000000000	2.510000000000000231
2.000000000000000000	2.510000000000000231
2.000000000000000000	2.510000000000000231

cellcount    =          6762257		maxdepth = 6
partialpushes=                0
largecut     =          2336016		discards     =                0
smallcut     =                0		verifycount  =          4320580
partialcount =                0		diff         =           105661
Verification succeeded.

All verifications succeeded.

Done.
Ending time:    	Thu Jun 25 17:29:22 1998

Elapsed time: 1915 seconds,		diff = 942.3
6762257 cells considered,		3531.2 cells per second


